5
4
20
1 1.3 1.55 1.75 2.1
32 17 37 24 21 47 26 46 33 44 38 6 23 43 44 44 11 22 22 5 9 7 32 23 25 38 6 9 42 19 24 49 37 31 11 8 11 39 47 39 45 6 41 31 15 28 19 31 31 49 41 31 24 25 13 46 24 10 7 38 23 20 27 41 18 34 31 23 12 26 20 43 7 6 6 23 24 25 38 48 